NAME : portcgen-24-28
COMMENT : portcgen N=24, seed=28
TYPE : TSP
DIMENSION : 24
EDGE_WEIGHT_TYPE : EUC_2D
NODE_COORD_SECTION
1 144144 -106035
2 227417 -203010
3 -191263 344975
4 -112327 76676
5 -153969 -26125
6 -410004 -108993
7 228699 -230979
8 -16329 402103
9 51729 216573
10 -216026 336481
11 -34685 83350
12 273206 -336664
13 336679 -187038
14 -198191 -162312
15 -6013 -6884
16 197753 -209722
17 218843 -6475
18 -160306 -163092
19 -88516 -136250
20 405575 -28978
21 245844 27836
22 -136968 8398
23 -196189 -97860
24 -42914 54687
